problems/csplib-prob015/SchursLemma-models/noch/O2/lingeling/model_1_4-4-13-solution000001.solution
language Essence 1.3

letting boxes be partition({1, 8}, {2, 3, 4, 11}, {5, 6, 9, 10, 12, 13}, {7})
